NAME: kroA150
COMMENT: Quick (5min) local search tour for kroA150 (30362.272545893833)
TYPE: TOUR
DIMENSION: 150
TOUR_SECTION: 1 130 28 93 131 91 109 47 113 72 10 84 36 38 24 18 104 111 102 99 127 59 141 74 21 17 15 11 32 45 98 23 60 62 35 55 83 149 120 115 123 29 46 3 136 43 128 41 71 100 14 48 30 121 132 112 107 147 68 85 101 39 96 78 52 5 37 103 146 33 76 13 95 126 82 116 2 54 40 64 144 114 44 50 73 69 81 25 61 51 125 87 145 140 135 34 117 9 7 57 20 12 27 86 150 77 110 58 108 67 105 142 148 133 138 89 31 80 122 42 8 92 75 19 66 65 4 97 139 56 143 119 118 124 26 129 70 22 94 16 88 53 134 137 79 106 90 49 6 63 -1
EOF